; declare variables
(declare-const X Bool)
(declare-const Y Bool)
(declare-const Z Bool)

; define formula (ğ‘‹â‡’ğ‘Œâ‡’ğ‘)âˆ§ğ‘‹
(assert (=> X Y Z))
(assert X)

(check-sat)

(get-model) ; fails if unsat
